This is Ipopt version 3.10.1, running with linear solver mumps.

Number of nonzeros in equality constraint Jacobian...:      141
Number of nonzeros in inequality constraint Jacobian.:        0
Number of nonzeros in Lagrangian Hessian.............:     2019

Total number of variables............................:       72
                     variables with only lower bounds:        0
                variables with lower and upper bounds:       72
                     variables with only upper bounds:        0
Total number of equality constraints.................:       47
Total number of inequality constraints...............:        0
        inequality constraints with only lower bounds:        0
   inequality constraints with lower and upper bounds:        0
        inequality constraints with only upper bounds:        0

iter    objective    inf_pr   inf_du lg(mu)  ||d||  lg(rg) alpha_du alpha_pr  ls
   0 -1.1282393e-03 1.19e-10 3.47e-03  -1.0 0.00e+00    -  0.00e+00 0.00e+00   0
   1 -1.1210437e-03 2.22e-16 1.65e-06  -1.7 1.64e-02    -  1.00e+00 1.00e+00f  1
   2 -1.1285271e-03 7.56e-11 1.23e-05  -2.5 4.53e-02    -  1.00e+00 1.00e+00f  1
   3 -1.2554244e-03 2.22e-16 4.01e-05  -3.8 2.52e-02    -  9.93e-01 1.00e+00f  1
   4 -2.0391186e-03 4.29e-13 8.72e-04  -5.7 7.71e-02  -2.0 8.43e-01 1.00e+00f  1
   5 -3.0024208e-03 3.33e-16 1.55e-03  -5.7 5.67e-02  -1.6 1.00e+00 1.00e+00f  1
   6 -3.7119515e-03 4.80e-13 2.04e-03  -5.7 2.92e-02  -1.1 1.00e+00 1.00e+00f  1
   7 -5.5875276e-03 4.13e-13 2.99e-03  -5.7 3.76e-01  -1.6 1.00e+00 1.39e-01f  1
   8 -6.2516523e-03 7.71e-13 8.92e-03  -5.7 6.89e-02  -1.2 1.00e+00 2.32e-01f  1
   9 -7.4675794e-03 1.51e-12 2.12e-02  -5.7 3.08e+00  -1.7 6.56e-02 8.84e-03f  1
iter    objective    inf_pr   inf_du lg(mu)  ||d||  lg(rg) alpha_du alpha_pr  ls
  10 -9.7642530e-03 2.46e-12 6.74e-03  -5.7 9.88e-02  -1.3 1.00e+00 4.37e-01f  1
  11 -1.2350750e-02 2.18e-12 5.47e-03  -5.7 3.75e-02  -0.8 1.00e+00 1.00e+00f  1
  12 -1.3900160e-02 2.12e-12 3.66e-02  -5.7 6.91e-01  -1.3 4.18e-01 2.73e-02f  1
  13 -1.7676306e-02 2.99e-12 7.96e-03  -5.7 7.07e-02  -0.9 1.00e+00 5.94e-01f  1
  14 -7.7591444e-03 2.83e-12 2.75e-02  -5.7 6.82e+00  -1.4 1.11e-03 5.15e-02h  1
  15 -7.7556668e-03 3.06e-12 2.68e-02  -5.7 9.84e-02  -0.9 5.65e-01 3.12e-02f  6
  16 -7.7707630e-03 3.08e-12 2.67e-02  -5.7 1.44e-01  -1.4 1.00e+00 2.14e-03f  9
  17 -9.6363647e-03 2.22e-16 3.61e-03  -5.7 3.25e-02  -1.0 1.00e+00 1.00e+00f  1
  18 -1.3122290e-02 2.22e-16 1.44e-02  -5.7 4.75e-01  -1.5 4.77e-01 1.11e-01f  1
  19 -1.6069261e-02 2.22e-16 7.80e-03  -5.7 9.03e-02  -1.0 1.00e+00 4.03e-01f  1
iter    objective    inf_pr   inf_du lg(mu)  ||d||  lg(rg) alpha_du alpha_pr  ls
  20 -1.8960141e-02 6.66e-16 7.67e-03  -5.7 3.11e-02  -0.6 6.87e-01 1.00e+00f  1
  21 -2.0662037e-02 6.66e-16 3.36e-02  -5.7 2.38e-01  -1.1 1.00e+00 6.64e-02f  1
  22 -2.6229550e-02 2.22e-16 1.07e-02  -5.7 4.93e-02  -0.7 6.66e-01 1.00e+00f  1
  23 -2.8663076e-02 2.22e-16 9.41e-02  -5.7 1.42e+00  -1.1 3.59e-01 1.38e-02f  1
  24 -4.3707847e-02 5.12e-12 1.92e-02  -5.7 9.19e-02  -0.7 1.00e+00 8.64e-01f  1
  25 -4.8285457e-02 8.90e-12 4.12e-02  -5.7 4.36e-02  -0.3 1.00e+00 4.90e-01f  1
  26 -5.0657129e-02 9.88e-12 1.46e-01  -5.7 3.63e-01  -0.8 1.00e+00 2.92e-02f  1
  27 -4.9257456e-02 8.36e-12 1.32e-01  -5.7 6.68e-01  -1.2 4.59e-02 1.53e-01h  1
  28 -5.0138919e-02 8.76e-12 1.23e-01  -5.7 2.42e-01  -0.8 1.00e+00 2.20e-02f  1
  29 -5.9661628e-02 1.67e-11 2.26e-02  -5.7 5.93e-02  -0.4 8.90e-01 9.01e-01f  1
iter    objective    inf_pr   inf_du lg(mu)  ||d||  lg(rg) alpha_du alpha_pr  ls
  30 -5.9989444e-02 1.67e-11 1.22e-01  -5.7 4.68e-01  -0.9 6.31e-01 3.70e-03f  1
  31 -6.5310712e-02 1.45e-11 1.01e-01  -5.7 8.16e-01  -1.3 7.67e-02 1.33e-01f  1
  32 -7.3382670e-02 1.61e-11 1.69e-01  -5.7 4.39e-01  -0.9 1.00e+00 9.25e-02f  1
  33 -9.7637420e-02 6.66e-16 2.57e-02  -5.7 7.22e-02  -0.5 1.00e+00 1.00e+00f  1
  34 -1.0961376e-01 2.22e-16 2.92e-02  -5.7 3.40e-02  -0.1 1.00e+00 7.94e-01f  1
  35 -1.4365792e-01 1.03e-11 7.07e-02  -5.7 3.14e-01  -0.5 5.18e-01 1.94e-01f  1
  36 -5.6486845e-02 1.90e-12 5.59e-01  -5.7 4.06e-01  -1.0 4.01e-04 8.16e-01h  1
  37 -5.9985115e-02 5.93e-12 9.94e-02  -5.7 2.90e-01  -0.6 5.71e-01 9.45e-01F  1
  38 -5.9980675e-02 5.93e-12 9.75e-02  -5.7 8.61e-01  -1.1 1.21e-02 5.97e-05f  6
  39 -6.5323269e-02 4.26e-12 1.23e-01  -5.7 9.73e-02  -0.6 8.06e-01 2.81e-01f  1
iter    objective    inf_pr   inf_du lg(mu)  ||d||  lg(rg) alpha_du alpha_pr  ls
  40 -7.5254661e-02 4.02e-12 1.15e-01  -5.7 8.63e-01  -1.1 3.02e-02 5.56e-02f  1
  41 -7.8757980e-02 6.14e-12 1.31e-01  -5.7 1.04e-01  -0.7 1.00e+00 1.54e-01f  1
  42 -9.6859550e-02 5.90e-12 1.24e-01  -5.7 1.94e+00  -1.2 1.45e-02 3.78e-02f  1
  43 -1.3414092e-01 1.40e-11 5.90e-02  -5.7 1.94e-01  -0.7 8.66e-01 4.87e-01F  1
  44 -1.6354374e-01 3.12e-11 3.92e-02  -5.7 8.46e-02  -0.3 1.00e+00 7.64e-01f  1
  45 -1.5239122e-01 3.07e-11 4.73e-02  -5.7 1.51e+00  -0.8 4.80e-02 1.53e-02h  1
  46 -1.6713222e-01 2.40e-11 7.15e-02  -5.7 1.11e-01  -0.4 1.00e+00 2.17e-01f  1
  47 -1.9284140e-01 1.44e-11 4.30e-02  -5.7 3.55e-02   0.1 1.00e+00 1.00e+00f  1
  48 -1.9888044e-01 1.59e-11 4.45e-02  -5.7 2.52e-01  -0.4 7.99e-02 3.04e-02f  1
  49 -1.9887740e-01 1.59e-11 4.48e-02  -5.7 5.21e-01  -0.9 3.95e-03 1.45e-05f  8
iter    objective    inf_pr   inf_du lg(mu)  ||d||  lg(rg) alpha_du alpha_pr  ls
  50 -1.9887011e-01 1.59e-11 4.42e-02  -5.7 1.83e+01  -0.5 4.59e-04 1.07e-06f  7
  51 -1.9856747e-01 1.59e-11 4.41e-02  -5.7 4.69e-01  -0.9 1.57e-01 1.75e-03h  1
  52 -1.9962920e-01 1.61e-11 4.43e-02  -5.7 4.92e-01  -0.5 6.02e-02 3.60e-03f  1
  53 -1.9962105e-01 1.61e-11 7.90e-02  -5.7 2.78e+00  -1.0 1.16e-02 8.05e-06f  7
  54 -2.0318719e-01 1.69e-11 2.53e-01  -5.7 8.43e-01  -0.6 4.05e-01 7.10e-03f  1
  55 -2.0318072e-01 1.69e-11 2.26e-01  -5.7 4.76e-01  -1.0 8.51e-02 4.16e-05f 14
  56 -2.0412330e-01 3.34e-11 2.28e-01  -5.7 2.34e+00  -0.6 7.51e-04 7.67e-04f  1
  57 -2.0411708e-01 3.34e-11 1.82e-01  -5.7 6.60e-01  -1.1 1.55e-01 4.78e-05f 10
  58 -2.2493212e-01 2.22e-16 4.70e-02  -5.7 2.66e-02   0.2 1.00e+00 1.00e+00f  1
  59 -2.5437301e-01 2.22e-16 1.15e-01  -5.7 1.56e-01  -0.2 9.39e-01 2.20e-01f  1
iter    objective    inf_pr   inf_du lg(mu)  ||d||  lg(rg) alpha_du alpha_pr  ls
  60 -2.5423059e-01 2.22e-16 1.13e-01  -5.7 5.95e-01  -0.7 4.00e-03 3.54e-04h  9
  61 -3.4270484e-01 8.47e-11 5.70e-01  -5.7 2.88e-01  -0.3 7.69e-04 3.21e-01f  1
  62 -3.4270268e-01 8.47e-11 5.72e-01  -5.7 3.05e-01  -0.8 5.86e-02 5.81e-06f 15
  63 -3.4790584e-01 6.29e-11 5.09e-01  -5.7 2.88e-02   0.6 1.00e+00 1.24e-01f  1
  64 -3.5609962e-01 5.50e-11 4.18e-01  -5.7 1.27e-01   0.1 1.00e+00 5.10e-02f  1
  65 -2.0247609e-01 2.22e-16 3.21e-01  -5.7 1.72e-01    -  2.54e-01 1.00e+00h  1
  66 -2.0477665e-01 2.22e-16 1.47e-01  -5.7 1.55e-01  -0.4 1.00e+00 3.48e-02f  4
  67 -2.0440638e-01 2.22e-16 1.03e-01  -5.7 2.62e-01    -  4.63e-01 4.94e-03h  8
  68 -2.0321240e-01 8.88e-15 1.01e-01  -5.7 2.75e-01    -  1.62e-02 1.62e-02s 21
  69 -2.0229099e-01 8.66e-15 1.00e-01  -5.7 7.02e-01  -0.9 3.69e-03 3.69e-03s 21
iter    objective    inf_pr   inf_du lg(mu)  ||d||  lg(rg) alpha_du alpha_pr  ls
  70 -2.0433565e-01 1.49e-12 9.96e-02  -5.7 2.05e-01  -0.5 2.44e-02 2.44e-02s 21
Restoration phase is called at point that is almost feasible,
  with constraint violation 2.962641e-11. Abort.

Number of Iterations....: 70

                                   (scaled)                 (unscaled)
Objective...............:  -2.0433564965633058e-01   -2.0433564965633058e-01
Dual infeasibility......:   9.9628748562275299e-02    9.9628748562275299e-02
Constraint violation....:   1.4872547637878597e-12    1.4872547637878597e-12
Complementarity.........:   1.1015325551052276e-05    1.1015325551052276e-05
Overall NLP error.......:   9.9628748562275299e-02    9.9628748562275299e-02


Number of objective function evaluations             = 195
Number of objective gradient evaluations             = 72
Number of equality constraint evaluations            = 195
Number of inequality constraint evaluations          = 0
Number of equality constraint Jacobian evaluations   = 1
Number of inequality constraint Jacobian evaluations = 0
Number of Lagrangian Hessian evaluations             = 71
Total CPU secs in IPOPT (w/o function evaluations)   =      0.150
Total CPU secs in NLP function evaluations           =      1.580

EXIT: Restoration Failed!
